750
[79,81,83,84,85,86,87,91,92,94,97,100,101,112,113,118,121,126,129,131,132,138,139,142,145,146,148,150,151,152,153,158,160,162,163,168,173,174,179,180,182,184,186,187,188,189,192,193,195,196,197,202,204,206,214,215,218,221,223,226,230,231,237,242,244,252,256,258,259,260,263,267,268,269,271,272,280,285,286,296,299,313,314,325,327,331,340,341,345,350,355,356,363,364,367,369,370,377,380,382,389,394,397,400,402,404,408,411,418,419,424,426,429,430,434,435,440,452,455,457,458,459,462,466,470,474,479,480,481,482,490,496,498,501,502,504,505,506,507,511,515,517,521,525,526,528,529,531,533,542,545,546,548,549,550,551,555,556,560,561,568,569,579,581,582,584,591]
[2,1,1,1,1,1,1,1,1,1,1,1,1,1,1,1,1,1,1,1,1,1,1,1,1,1,2,1,1,1,1,1,1,2,1,3,1,1,1,1,1,1,1,1,1,1,2,1,1,1,1,1,2,1,1,1,1,1,1,2,1,1,1,1,1,1,1,1,1,1,1,1,1,1,1,1,1,2,1,2,3,1,1,1,1,1,2,2,1,1,1,1,1,1,2,1,2,1,2,2,1,1,1,1,1,1,1,1,1,1,1,3,1,1,1,1,2,1,1,1,1,1,1,1,1,1,1,1,2,1,1,1,1,1,2,1,2,1,1,1,1,1,3,1,1,2,1,2,1,1,1,2,1,1,1,1,1,1,2,1,3,1,1,2,1,1,1]
